benchmark/obecase/sub.out
2 {f:str.++(str.suf(Param0,+(1,1)),str.pre(Param1,+(1,1)))}
5.2494420000
